peakDumbCharging = 29600; 
Machine = anon_enum(16); 
machineSpeed = [3700,3700,3700,3700,3700,3700,3700,3700,3700,3700,3700,3700,3700,3700,3700,3700]; 
machineLoad = [3700,3700,3700,3700,3700,3700,3700,3700,3700,3700,3700,3700,3700,3700,3700,3700]; 
Car = anon_enum(31); 
demandCar = [1800,16800,7440,5200,2040,3440,3800,7440,7960,5400,2720,31600,1920,4560,2840,4880,920,5120,1200,2520,3520,1600,13120,28080,32600,24160,9640,34800,14960,10080,23680]; 
arrivalCar = [69,66,64,64,61,61,60,57,54,54,53,51,51,42,41,40,39,39,38,36,36,34,28,27,27,26,25,25,24,23,22]; 
departureCar = [70,72,67,66,62,64,63,60,58,57,55,62,54,46,46,44,41,45,40,39,39,35,36,43,41,41,30,50,35,43,33]; 
